(set-logic QF_S)
(declare-fun var_0xINPUT_327074 () String)
(assert (and (= (len var_0xINPUT_327074) 0) (= (len var_0xINPUT_327074) 0) (not (= var_0xINPUT_327074 "AA1ND6MEXd"))))
(check-sat var_0xINPUT_327074)